write_iter1.lp
\ LP format - for model browsing. Use MPS format to capture full model detail.
Maximize
 
Subject To
 R0: 5 C1 + 3 C8 + 2 C11 = 1
 R1: C0 + 6 C3 + 3 C4 = 1
 R2: C2 + 3 C4 + 6 C7 = 1
 R3: C0 + 2 C2 + 7 C4 = 1
 R4: C3 + 2 C4 + 5 C5 + 2 C7 = 1
 R5: 3 C5 + 4 C6 + 3 C7 = 1
 R6: 4 C1 + 3 C3 + 3 C5 = 1
 R7: C1 + 4 C5 + 2 C6 + 3 C8 = 1
 R8: 5 C6 + 3 C8 + 2 C9 = 1
 R9: 6 C8 + 2 C9 + C10 + C11 = 1
 R10: 7 C9 + 3 C10 = 1
 R11: 3 C10 + 7 C11 = 1
 R12: C0 - C1 - C12 = 0
Bounds
 C0 <= 1
 C1 <= 1
 C2 <= 1
 C3 <= 1
 C4 <= 1
 C5 <= 1
 C6 <= 1
 C7 <= 1
 C8 <= 1
 C9 <= 1
 C10 <= 1
 C11 <= 1
 C12 = 0
End
