write_iter1.mps
NAME
ROWS
 N  COST
 E  R0      
 E  R1      
 E  R2      
 E  R3      
 E  R4      
 E  R5      
 E  R6      
 E  R7      
 E  R8      
 E  R9      
 E  R10     
 E  R11     
 E  R12     
COLUMNS
    C0        R1        1
    C0        R3        1
    C0        R12       1
    C1        R0        5
    C1        R6        4
    C1        R7        1
    C1        R12       -1
    C2        R2        1
    C2        R3        2
    C3        R1        6
    C3        R4        1
    C3        R6        3
    C4        R1        3
    C4        R2        3
    C4        R3        7
    C4        R4        2
    C5        R4        5
    C5        R5        3
    C5        R6        3
    C5        R7        4
    C6        R5        4
    C6        R7        2
    C6        R8        5
    C7        R2        6
    C7        R4        2
    C7        R5        3
    C8        R0        3
    C8        R7        3
    C8        R8        3
    C8        R9        6
    C9        R8        2
    C9        R9        2
    C9        R10       7
    C10       R9        1
    C10       R10       3
    C10       R11       3
    C11       R0        2
    C11       R9        1
    C11       R11       7
    C12       R12       -1
RHS
    RHS_V     R0        1
    RHS_V     R1        1
    RHS_V     R2        1
    RHS_V     R3        1
    RHS_V     R4        1
    RHS_V     R5        1
    RHS_V     R6        1
    RHS_V     R7        1
    RHS_V     R8        1
    RHS_V     R9        1
    RHS_V     R10       1
    RHS_V     R11       1
BOUNDS
 UP BOUND     C0        1
 UP BOUND     C1        1
 UP BOUND     C2        1
 UP BOUND     C3        1
 UP BOUND     C4        1
 UP BOUND     C5        1
 UP BOUND     C6        1
 UP BOUND     C7        1
 UP BOUND     C8        1
 UP BOUND     C9        1
 UP BOUND     C10       1
 UP BOUND     C11       1
 FX BOUND     C12       0
ENDATA
